<number of tasks>
50

<cycle time>
1000

<order strength>
0.6


<task times>
1 281
2 547
3 275
4 110
5 83
6 479
7 65
8 483
9 34
10 348
11 111
12 35
13 36
14 28
15 224
16 122
17 122
18 36
19 249
20 511
21 110
22 519
23 63
24 126
25 165
26 30
27 47
28 213
29 93
30 44
31 77
32 194
33 343
34 595
35 276
36 103
37 535
38 218
39 553
40 228
41 143
42 195
43 324
44 267
45 277
46 266
47 29
48 123
49 115
50 170

<precedence relations>
1,25
2,25
3,12
4,42
5,7
5,9
5,13
5,14
5,15
6,7
6,8
6,10
6,11
7,12
8,12
9,12
10,13
10,14
10,27
11,15
11,23
12,16
12,17
12,18
12,19
12,20
12,21
13,16
14,25
15,21
15,22
16,25
17,22
19,40
20,23
21,24
21,25
22,25
23,25
23,27
24,26
24,27
24,28
24,43
25,29
25,30
25,31
25,32
25,33
26,40
27,34
28,36
28,37
28,38
29,39
29,41
31,41
32,43
33,35
33,36
34,37
34,40
35,38
35,40
35,41
36,39
38,42
39,42
40,42
41,43
41,44
42,45
42,46
42,47
42,48
42,50
44,49

<end>
